clingo version 5.7.1
Reading from search.lp
Solving...
Answer: 1
node(1) node(2) node(3) edge(2,1) edge(3,1) edge(1,2) edge(3,2) edge(1,3) edge(2,3) color(red) color(blue) red(3) color(2,3,red) color(1,3,red) red(2) color(3,2,red) color(1,2,red) color(3,1,red) color(2,1,red) result(success)
Answer: 2
node(1) node(2) node(3) edge(2,1) edge(3,1) edge(1,2) edge(3,2) edge(1,3) edge(2,3) color(red) color(blue) color(2,3,red) color(1,3,red) red(2) color(3,2,red) color(1,2,red) red(1) color(3,1,red) color(2,1,red) result(success)
Answer: 3
node(1) node(2) node(3) edge(2,1) edge(3,1) edge(1,2) edge(3,2) edge(1,3) edge(2,3) color(red) color(blue) red(3) color(2,3,red) color(1,3,red) color(3,2,red) color(1,2,red) red(1) color(3,1,red) color(2,1,red) result(success)
Answer: 4
node(1) node(2) node(3) edge(2,1) edge(3,1) edge(1,2) edge(3,2) edge(1,3) edge(2,3) color(red) color(blue) blue(2) color(1,2,blue) blue(1) color(2,1,blue) red(3) color(2,3,red) color(1,3,red) red(2) color(3,2,red) color(3,1,red) result(success)
Answer: 5
node(1) node(2) node(3) edge(2,1) edge(3,1) edge(1,2) edge(3,2) edge(1,3) edge(2,3) color(red) color(blue) blue(2) color(1,2,blue) blue(1) color(2,1,blue) red(3) color(2,3,red) color(1,3,red) color(3,2,red) red(1) color(3,1,red) result(success)
Answer: 6
node(1) node(2) node(3) edge(2,1) edge(3,1) edge(1,2) edge(3,2) edge(1,3) edge(2,3) color(red) color(blue) blue(2) color(1,2,blue) blue(1) color(2,1,blue) color(2,3,red) color(1,3,red) color(3,2,red) color(3,1,red) result(success)
Answer: 7
node(1) node(2) node(3) edge(2,1) edge(3,1) edge(1,2) edge(3,2) edge(1,3) edge(2,3) color(red) color(blue) blue(2) color(1,2,blue) blue(1) color(2,1,blue) color(2,3,red) color(1,3,red) red(2) color(3,2,red) color(3,1,red) result(success)
Answer: 8
node(1) node(2) node(3) edge(2,1) edge(3,1) edge(1,2) edge(3,2) edge(1,3) edge(2,3) color(red) color(blue) blue(2) color(1,2,blue) blue(1) color(2,1,blue) red(3) color(2,3,red) color(1,3,red) color(3,2,red) color(3,1,red) result(success)
Answer: 9
node(1) node(2) node(3) edge(2,1) edge(3,1) edge(1,2) edge(3,2) edge(1,3) edge(2,3) color(red) color(blue) blue(2) color(1,2,blue) blue(1) color(2,1,blue) color(2,3,red) color(1,3,red) color(3,2,red) red(1) color(3,1,red) result(success)
Answer: 10
node(1) node(2) node(3) edge(2,1) edge(3,1) edge(1,2) edge(3,2) edge(1,3) edge(2,3) color(red) color(blue) color(1,2,blue) color(2,1,blue) red(3) color(2,3,red) color(1,3,red) color(3,2,red) red(1) color(3,1,red) result(success)
Answer: 11
node(1) node(2) node(3) edge(2,1) edge(3,1) edge(1,2) edge(3,2) edge(1,3) edge(2,3) color(red) color(blue) blue(2) color(1,2,blue) color(2,1,blue) red(3) color(2,3,red) color(1,3,red) color(3,2,red) red(1) color(3,1,red) result(success)
Answer: 12
node(1) node(2) node(3) edge(2,1) edge(3,1) edge(1,2) edge(3,2) edge(1,3) edge(2,3) color(red) color(blue) color(1,2,blue) blue(1) color(2,1,blue) red(3) color(2,3,red) color(1,3,red) color(3,2,red) red(1) color(3,1,red) result(success)
Answer: 13
node(1) node(2) node(3) edge(2,1) edge(3,1) edge(1,2) edge(3,2) edge(1,3) edge(2,3) color(red) color(blue) color(1,2,blue) color(2,1,blue) red(3) color(2,3,red) color(1,3,red) red(2) color(3,2,red) color(3,1,red) result(success)
Answer: 14
node(1) node(2) node(3) edge(2,1) edge(3,1) edge(1,2) edge(3,2) edge(1,3) edge(2,3) color(red) color(blue) color(1,2,blue) blue(1) color(2,1,blue) red(3) color(2,3,red) color(1,3,red) red(2) color(3,2,red) color(3,1,red) result(success)
Answer: 15
node(1) node(2) node(3) edge(2,1) edge(3,1) edge(1,2) edge(3,2) edge(1,3) edge(2,3) color(red) color(blue) blue(2) color(1,2,blue) color(2,1,blue) red(3) color(2,3,red) color(1,3,red) red(2) color(3,2,red) color(3,1,red) result(success)
Answer: 16
node(1) node(2) node(3) edge(2,1) edge(3,1) edge(1,2) edge(3,2) edge(1,3) edge(2,3) color(red) color(blue) blue(3) color(1,3,blue) color(1,2,blue) blue(1) color(3,1,blue) color(2,1,blue) red(3) color(2,3,red) red(2) color(3,2,red) result(success)
Answer: 17
node(1) node(2) node(3) edge(2,1) edge(3,1) edge(1,2) edge(3,2) edge(1,3) edge(2,3) color(red) color(blue) color(1,3,blue) blue(2) color(1,2,blue) blue(1) color(3,1,blue) color(2,1,blue) red(3) color(2,3,red) red(2) color(3,2,red) result(success)
Answer: 18
node(1) node(2) node(3) edge(2,1) edge(3,1) edge(1,2) edge(3,2) edge(1,3) edge(2,3) color(red) color(blue) color(1,3,blue) color(1,2,blue) color(3,1,blue) color(2,1,blue) red(3) color(2,3,red) red(2) color(3,2,red) result(success)
Answer: 19
node(1) node(2) node(3) edge(2,1) edge(3,1) edge(1,2) edge(3,2) edge(1,3) edge(2,3) color(red) color(blue) color(1,3,blue) blue(2) color(1,2,blue) color(3,1,blue) color(2,1,blue) red(3) color(2,3,red) red(2) color(3,2,red) result(success)
Answer: 20
node(1) node(2) node(3) edge(2,1) edge(3,1) edge(1,2) edge(3,2) edge(1,3) edge(2,3) color(red) color(blue) color(1,3,blue) color(1,2,blue) blue(1) color(3,1,blue) color(2,1,blue) red(3) color(2,3,red) red(2) color(3,2,red) result(success)
Answer: 21
node(1) node(2) node(3) edge(2,1) edge(3,1) edge(1,2) edge(3,2) edge(1,3) edge(2,3) color(red) color(blue) blue(3) color(1,3,blue) color(1,2,blue) color(3,1,blue) color(2,1,blue) red(3) color(2,3,red) red(2) color(3,2,red) result(success)
Answer: 22
node(1) node(2) node(3) edge(2,1) edge(3,1) edge(1,2) edge(3,2) edge(1,3) edge(2,3) color(red) color(blue) blue(3) color(1,3,blue) blue(1) color(3,1,blue) red(3) color(2,3,red) red(2) color(3,2,red) color(1,2,red) color(2,1,red) result(success)
Answer: 23
node(1) node(2) node(3) edge(2,1) edge(3,1) edge(1,2) edge(3,2) edge(1,3) edge(2,3) color(red) color(blue) color(1,3,blue) color(3,1,blue) red(3) color(2,3,red) red(2) color(3,2,red) color(1,2,red) color(2,1,red) result(success)
Answer: 24
node(1) node(2) node(3) edge(2,1) edge(3,1) edge(1,2) edge(3,2) edge(1,3) edge(2,3) color(red) color(blue) color(1,3,blue) blue(1) color(3,1,blue) red(3) color(2,3,red) red(2) color(3,2,red) color(1,2,red) color(2,1,red) result(success)
Answer: 25
node(1) node(2) node(3) edge(2,1) edge(3,1) edge(1,2) edge(3,2) edge(1,3) edge(2,3) color(red) color(blue) blue(3) color(1,3,blue) color(3,1,blue) red(3) color(2,3,red) red(2) color(3,2,red) color(1,2,red) color(2,1,red) result(success)
Answer: 26
node(1) node(2) node(3) edge(2,1) edge(3,1) edge(1,2) edge(3,2) edge(1,3) edge(2,3) color(red) color(blue) blue(3) color(1,3,blue) color(1,2,blue) blue(1) color(3,1,blue) color(2,1,blue) color(2,3,red) color(3,2,red) result(success)
Answer: 27
node(1) node(2) node(3) edge(2,1) edge(3,1) edge(1,2) edge(3,2) edge(1,3) edge(2,3) color(red) color(blue) blue(3) color(1,3,blue) blue(1) color(3,1,blue) color(2,3,red) color(3,2,red) color(1,2,red) color(2,1,red) result(success)
Answer: 28
node(1) node(2) node(3) edge(2,1) edge(3,1) edge(1,2) edge(3,2) edge(1,3) edge(2,3) color(red) color(blue) blue(3) color(1,3,blue) blue(1) color(3,1,blue) color(2,3,red) red(2) color(3,2,red) color(1,2,red) color(2,1,red) result(success)
Answer: 29
node(1) node(2) node(3) edge(2,1) edge(3,1) edge(1,2) edge(3,2) edge(1,3) edge(2,3) color(red) color(blue) blue(3) color(1,3,blue) color(1,2,blue) blue(1) color(3,1,blue) color(2,1,blue) color(2,3,red) red(2) color(3,2,red) result(success)
Answer: 30
node(1) node(2) node(3) edge(2,1) edge(3,1) edge(1,2) edge(3,2) edge(1,3) edge(2,3) color(red) color(blue) blue(3) color(1,3,blue) color(1,2,blue) blue(1) color(3,1,blue) color(2,1,blue) red(3) color(2,3,red) color(3,2,red) result(success)
Answer: 31
node(1) node(2) node(3) edge(2,1) edge(3,1) edge(1,2) edge(3,2) edge(1,3) edge(2,3) color(red) color(blue) blue(3) color(1,3,blue) blue(1) color(3,1,blue) red(3) color(2,3,red) color(3,2,red) color(1,2,red) color(2,1,red) result(success)
Answer: 32
node(1) node(2) node(3) edge(2,1) edge(3,1) edge(1,2) edge(3,2) edge(1,3) edge(2,3) color(red) color(blue) color(1,3,blue) blue(2) color(1,2,blue) blue(1) color(3,1,blue) color(2,1,blue) color(2,3,red) color(3,2,red) result(success)
Answer: 33
node(1) node(2) node(3) edge(2,1) edge(3,1) edge(1,2) edge(3,2) edge(1,3) edge(2,3) color(red) color(blue) color(1,3,blue) blue(2) color(1,2,blue) blue(1) color(3,1,blue) color(2,1,blue) color(2,3,red) red(2) color(3,2,red) result(success)
Answer: 34
node(1) node(2) node(3) edge(2,1) edge(3,1) edge(1,2) edge(3,2) edge(1,3) edge(2,3) color(red) color(blue) color(1,3,blue) blue(2) color(1,2,blue) blue(1) color(3,1,blue) color(2,1,blue) red(3) color(2,3,red) color(3,2,red) result(success)
Answer: 35
node(1) node(2) node(3) edge(2,1) edge(3,1) edge(1,2) edge(3,2) edge(1,3) edge(2,3) color(red) color(blue) blue(3) color(1,3,blue) blue(1) color(3,1,blue) color(2,3,red) red(2) color(3,2,red) color(1,2,red) red(1) color(2,1,red) result(success)
Answer: 36
node(1) node(2) node(3) edge(2,1) edge(3,1) edge(1,2) edge(3,2) edge(1,3) edge(2,3) color(red) color(blue) blue(3) color(1,3,blue) blue(1) color(3,1,blue) color(2,3,red) color(3,2,red) color(1,2,red) red(1) color(2,1,red) result(success)
Answer: 37
node(1) node(2) node(3) edge(2,1) edge(3,1) edge(1,2) edge(3,2) edge(1,3) edge(2,3) color(red) color(blue) color(1,3,blue) color(3,1,blue) color(2,3,red) red(2) color(3,2,red) color(1,2,red) red(1) color(2,1,red) result(success)
Answer: 38
node(1) node(2) node(3) edge(2,1) edge(3,1) edge(1,2) edge(3,2) edge(1,3) edge(2,3) color(red) color(blue) color(1,3,blue) blue(1) color(3,1,blue) color(2,3,red) red(2) color(3,2,red) color(1,2,red) red(1) color(2,1,red) result(success)
Answer: 39
node(1) node(2) node(3) edge(2,1) edge(3,1) edge(1,2) edge(3,2) edge(1,3) edge(2,3) color(red) color(blue) blue(3) color(1,3,blue) color(3,1,blue) color(2,3,red) red(2) color(3,2,red) color(1,2,red) red(1) color(2,1,red) result(success)
Answer: 40
node(1) node(2) node(3) edge(2,1) edge(3,1) edge(1,2) edge(3,2) edge(1,3) edge(2,3) color(red) color(blue) blue(3) color(2,3,blue) color(1,3,blue) color(3,2,blue) color(1,2,blue) blue(1) color(3,1,blue) color(2,1,blue) result(success)
Answer: 41
node(1) node(2) node(3) edge(2,1) edge(3,1) edge(1,2) edge(3,2) edge(1,3) edge(2,3) color(red) color(blue) blue(3) color(2,3,blue) color(1,3,blue) color(3,2,blue) blue(1) color(3,1,blue) color(1,2,red) color(2,1,red) result(success)
Answer: 42
node(1) node(2) node(3) edge(2,1) edge(3,1) edge(1,2) edge(3,2) edge(1,3) edge(2,3) color(red) color(blue) blue(3) color(2,3,blue) color(1,3,blue) color(3,2,blue) blue(1) color(3,1,blue) red(2) color(1,2,red) color(2,1,red) result(success)
Answer: 43
node(1) node(2) node(3) edge(2,1) edge(3,1) edge(1,2) edge(3,2) edge(1,3) edge(2,3) color(red) color(blue) color(2,3,blue) blue(2) color(3,2,blue) color(1,2,blue) blue(1) color(2,1,blue) color(1,3,red) color(3,1,red) result(success)
Answer: 44
node(1) node(2) node(3) edge(2,1) edge(3,1) edge(1,2) edge(3,2) edge(1,3) edge(2,3) color(red) color(blue) color(2,3,blue) blue(2) color(3,2,blue) color(1,2,blue) blue(1) color(2,1,blue) red(3) color(1,3,red) color(3,1,red) result(success)
Answer: 45
node(1) node(2) node(3) edge(2,1) edge(3,1) edge(1,2) edge(3,2) edge(1,3) edge(2,3) color(red) color(blue) color(2,3,blue) color(1,3,blue) blue(2) color(3,2,blue) color(1,2,blue) blue(1) color(3,1,blue) color(2,1,blue) result(success)
Answer: 46
node(1) node(2) node(3) edge(2,1) edge(3,1) edge(1,2) edge(3,2) edge(1,3) edge(2,3) color(red) color(blue) blue(3) color(2,3,blue) blue(2) color(3,2,blue) color(1,2,blue) color(2,1,blue) color(1,3,red) color(3,1,red) result(success)
Answer: 47
node(1) node(2) node(3) edge(2,1) edge(3,1) edge(1,2) edge(3,2) edge(1,3) edge(2,3) color(red) color(blue) blue(3) color(2,3,blue) blue(2) color(3,2,blue) color(1,2,blue) color(2,1,blue) red(3) color(1,3,red) color(3,1,red) result(success)
Answer: 48
node(1) node(2) node(3) edge(2,1) edge(3,1) edge(1,2) edge(3,2) edge(1,3) edge(2,3) color(red) color(blue) blue(3) color(2,3,blue) color(1,3,blue) blue(2) color(3,2,blue) color(1,2,blue) color(3,1,blue) color(2,1,blue) result(success)
Answer: 49
node(1) node(2) node(3) edge(2,1) edge(3,1) edge(1,2) edge(3,2) edge(1,3) edge(2,3) color(red) color(blue) blue(3) color(2,3,blue) blue(2) color(3,2,blue) color(1,3,red) color(1,2,red) color(3,1,red) color(2,1,red) result(success)
Answer: 50
node(1) node(2) node(3) edge(2,1) edge(3,1) edge(1,2) edge(3,2) edge(1,3) edge(2,3) color(red) color(blue) blue(3) color(2,3,blue) blue(2) color(3,2,blue) color(1,3,red) red(2) color(1,2,red) color(3,1,red) color(2,1,red) result(success)
Answer: 51
node(1) node(2) node(3) edge(2,1) edge(3,1) edge(1,2) edge(3,2) edge(1,3) edge(2,3) color(red) color(blue) blue(3) color(2,3,blue) blue(2) color(3,2,blue) red(3) color(1,3,red) color(1,2,red) color(3,1,red) color(2,1,red) result(success)
Answer: 52
node(1) node(2) node(3) edge(2,1) edge(3,1) edge(1,2) edge(3,2) edge(1,3) edge(2,3) color(red) color(blue) blue(3) color(2,3,blue) color(1,3,blue) blue(2) color(3,2,blue) color(3,1,blue) color(1,2,red) color(2,1,red) result(success)
Answer: 53
node(1) node(2) node(3) edge(2,1) edge(3,1) edge(1,2) edge(3,2) edge(1,3) edge(2,3) color(red) color(blue) blue(3) color(2,3,blue) color(1,3,blue) blue(2) color(3,2,blue) color(3,1,blue) red(2) color(1,2,red) color(2,1,red) result(success)
Answer: 54
node(1) node(2) node(3) edge(2,1) edge(3,1) edge(1,2) edge(3,2) edge(1,3) edge(2,3) color(red) color(blue) blue(3) color(2,3,blue) color(1,3,blue) color(3,2,blue) blue(1) color(3,1,blue) red(2) color(1,2,red) red(1) color(2,1,red) result(success)
Answer: 55
node(1) node(2) node(3) edge(2,1) edge(3,1) edge(1,2) edge(3,2) edge(1,3) edge(2,3) color(red) color(blue) blue(3) color(2,3,blue) color(1,3,blue) color(3,2,blue) blue(1) color(3,1,blue) color(1,2,red) red(1) color(2,1,red) result(success)
Answer: 56
node(1) node(2) node(3) edge(2,1) edge(3,1) edge(1,2) edge(3,2) edge(1,3) edge(2,3) color(red) color(blue) color(2,3,blue) color(3,2,blue) red(3) color(1,3,red) color(1,2,red) red(1) color(3,1,red) color(2,1,red) result(success)
Answer: 57
node(1) node(2) node(3) edge(2,1) edge(3,1) edge(1,2) edge(3,2) edge(1,3) edge(2,3) color(red) color(blue) color(2,3,blue) blue(2) color(3,2,blue) red(3) color(1,3,red) color(1,2,red) red(1) color(3,1,red) color(2,1,red) result(success)
Answer: 58
node(1) node(2) node(3) edge(2,1) edge(3,1) edge(1,2) edge(3,2) edge(1,3) edge(2,3) color(red) color(blue) color(2,3,blue) color(3,2,blue) color(1,3,red) red(2) color(1,2,red) red(1) color(3,1,red) color(2,1,red) result(success)
Answer: 59
node(1) node(2) node(3) edge(2,1) edge(3,1) edge(1,2) edge(3,2) edge(1,3) edge(2,3) color(red) color(blue) color(2,3,blue) blue(2) color(3,2,blue) color(1,3,red) red(2) color(1,2,red) red(1) color(3,1,red) color(2,1,red) result(success)
Answer: 60
node(1) node(2) node(3) edge(2,1) edge(3,1) edge(1,2) edge(3,2) edge(1,3) edge(2,3) color(red) color(blue) blue(3) color(2,3,blue) blue(2) color(3,2,blue) red(3) color(1,3,red) color(1,2,red) red(1) color(3,1,red) color(2,1,red) result(success)
Answer: 61
node(1) node(2) node(3) edge(2,1) edge(3,1) edge(1,2) edge(3,2) edge(1,3) edge(2,3) color(red) color(blue) blue(3) color(2,3,blue) color(3,2,blue) red(3) color(1,3,red) color(1,2,red) red(1) color(3,1,red) color(2,1,red) result(success)
Answer: 62
node(1) node(2) node(3) edge(2,1) edge(3,1) edge(1,2) edge(3,2) edge(1,3) edge(2,3) color(red) color(blue) blue(3) color(2,3,blue) blue(2) color(3,2,blue) color(1,3,red) red(2) color(1,2,red) red(1) color(3,1,red) color(2,1,red) result(success)
Answer: 63
node(1) node(2) node(3) edge(2,1) edge(3,1) edge(1,2) edge(3,2) edge(1,3) edge(2,3) color(red) color(blue) blue(3) color(2,3,blue) blue(2) color(3,2,blue) color(1,3,red) color(1,2,red) red(1) color(3,1,red) color(2,1,red) result(success)
Answer: 64
node(1) node(2) node(3) edge(2,1) edge(3,1) edge(1,2) edge(3,2) edge(1,3) edge(2,3) color(red) color(blue) blue(3) color(2,3,blue) color(3,2,blue) color(1,3,red) red(2) color(1,2,red) red(1) color(3,1,red) color(2,1,red) result(success)
Answer: 65
node(1) node(2) node(3) edge(2,1) edge(3,1) edge(1,2) edge(3,2) edge(1,3) edge(2,3) color(red) color(blue) color(2,3,blue) blue(2) color(3,2,blue) color(1,2,blue) blue(1) color(2,1,blue) red(3) color(1,3,red) red(1) color(3,1,red) result(success)
Answer: 66
node(1) node(2) node(3) edge(2,1) edge(3,1) edge(1,2) edge(3,2) edge(1,3) edge(2,3) color(red) color(blue) color(2,3,blue) color(3,2,blue) color(1,2,blue) color(2,1,blue) red(3) color(1,3,red) red(1) color(3,1,red) result(success)
Answer: 67
node(1) node(2) node(3) edge(2,1) edge(3,1) edge(1,2) edge(3,2) edge(1,3) edge(2,3) color(red) color(blue) color(2,3,blue) blue(2) color(3,2,blue) color(1,2,blue) color(2,1,blue) red(3) color(1,3,red) red(1) color(3,1,red) result(success)
Answer: 68
node(1) node(2) node(3) edge(2,1) edge(3,1) edge(1,2) edge(3,2) edge(1,3) edge(2,3) color(red) color(blue) color(2,3,blue) color(3,2,blue) color(1,2,blue) blue(1) color(2,1,blue) red(3) color(1,3,red) red(1) color(3,1,red) result(success)
Answer: 69
node(1) node(2) node(3) edge(2,1) edge(3,1) edge(1,2) edge(3,2) edge(1,3) edge(2,3) color(red) color(blue) color(2,3,blue) blue(2) color(3,2,blue) color(1,2,blue) blue(1) color(2,1,blue) color(1,3,red) red(1) color(3,1,red) result(success)
Answer: 70
node(1) node(2) node(3) edge(2,1) edge(3,1) edge(1,2) edge(3,2) edge(1,3) edge(2,3) color(red) color(blue) blue(3) color(2,3,blue) blue(2) color(3,2,blue) color(1,2,blue) color(2,1,blue) red(3) color(1,3,red) red(1) color(3,1,red) result(success)
Answer: 71
node(1) node(2) node(3) edge(2,1) edge(3,1) edge(1,2) edge(3,2) edge(1,3) edge(2,3) color(red) color(blue) blue(3) color(2,3,blue) color(3,2,blue) color(1,2,blue) color(2,1,blue) red(3) color(1,3,red) red(1) color(3,1,red) result(success)
Answer: 72
node(1) node(2) node(3) edge(2,1) edge(3,1) edge(1,2) edge(3,2) edge(1,3) edge(2,3) color(red) color(blue) blue(3) color(2,3,blue) blue(2) color(3,2,blue) color(1,2,blue) color(2,1,blue) color(1,3,red) red(1) color(3,1,red) result(success)
Answer: 73
node(1) node(2) node(3) edge(2,1) edge(3,1) edge(1,2) edge(3,2) edge(1,3) edge(2,3) color(red) color(blue) color(2,3,blue) color(1,3,blue) color(3,2,blue) color(3,1,blue) red(2) color(1,2,red) red(1) color(2,1,red) result(success)
Answer: 74
node(1) node(2) node(3) edge(2,1) edge(3,1) edge(1,2) edge(3,2) edge(1,3) edge(2,3) color(red) color(blue) color(2,3,blue) color(1,3,blue) blue(2) color(3,2,blue) color(3,1,blue) red(2) color(1,2,red) red(1) color(2,1,red) result(success)
Answer: 75
node(1) node(2) node(3) edge(2,1) edge(3,1) edge(1,2) edge(3,2) edge(1,3) edge(2,3) color(red) color(blue) color(2,3,blue) color(1,3,blue) color(3,2,blue) blue(1) color(3,1,blue) red(2) color(1,2,red) red(1) color(2,1,red) result(success)
Answer: 76
node(1) node(2) node(3) edge(2,1) edge(3,1) edge(1,2) edge(3,2) edge(1,3) edge(2,3) color(red) color(blue) blue(3) color(2,3,blue) color(1,3,blue) blue(2) color(3,2,blue) color(3,1,blue) red(2) color(1,2,red) red(1) color(2,1,red) result(success)
Answer: 77
node(1) node(2) node(3) edge(2,1) edge(3,1) edge(1,2) edge(3,2) edge(1,3) edge(2,3) color(red) color(blue) blue(3) color(2,3,blue) color(1,3,blue) blue(2) color(3,2,blue) color(3,1,blue) color(1,2,red) red(1) color(2,1,red) result(success)
Answer: 78
node(1) node(2) node(3) edge(2,1) edge(3,1) edge(1,2) edge(3,2) edge(1,3) edge(2,3) color(red) color(blue) blue(3) color(2,3,blue) color(1,3,blue) color(3,2,blue) color(3,1,blue) red(2) color(1,2,red) red(1) color(2,1,red) result(success)
SATISFIABLE

Models       : 78
Calls        : 1
Time         : 0.004s (Solving: 0.00s 1st Model: 0.00s Unsat: 0.00s)
CPU Time     : 0.004s
